50
21139

483 267
743 492
461 366
656 994
583 719
294 729
835 191
450 628
820 440
628 222
180 59
357 399
883 633
248 544
348 244
78 472
946 386
984 132
737 463
322 52
600 393
951 638
704 692
315 636
385 133
685 555
6 72
899 778
379 578
173 242
193 604
796 455
2 595
205 75
151 78
110 98
299 984
165 633
376 21
246 692
727 296
218 172
637 495
914 62
486 33
126 146
39 977
426 956
398 904
606 59
